(set-logic QF_LRA)
(declare-fun X0 () Real )
(declare-fun Y0 () Real )
(declare-fun X1 () Real )
(declare-fun Y1 () Real )
(declare-fun X2 () Real )
(declare-fun Y2 () Real )
(declare-fun X3 () Real )
(declare-fun Y3 () Real )
(declare-fun X4 () Real )
(declare-fun Y4 () Real )
(declare-fun X5 () Real )
(declare-fun Y5 () Real )
(declare-fun X6 () Real )
(declare-fun Y6 () Real )
(declare-fun X7 () Real )
(declare-fun Y7 () Real )
(declare-fun X8 () Real )
(declare-fun Y8 () Real )
(declare-fun X9 () Real )
(declare-fun Y9 () Real )
(declare-fun X10 () Real )
(declare-fun Y10 () Real )
(declare-fun X11 () Real )
(declare-fun Y11 () Real )
(declare-fun Z () Real )
(assert ( and  
( or ( <= ( + X0 68 ) X1 )  ( <= ( + X1 66 ) X0 )  ( <= ( + Y0 10 ) Y1 )  ( <= ( + Y1 99 ) Y0 )  )
( or ( <= ( + X0 68 ) X2 )  ( <= ( + X2 79 ) X0 )  ( <= ( + Y0 10 ) Y2 )  ( <= ( + Y2 40 ) Y0 )  )
( or ( <= ( + X0 68 ) X3 )  ( <= ( + X3 30 ) X0 )  ( <= ( + Y0 10 ) Y3 )  ( <= ( + Y3 58 ) Y0 )  )
( or ( <= ( + X0 68 ) X4 )  ( <= ( + X4 77 ) X0 )  ( <= ( + Y0 10 ) Y4 )  ( <= ( + Y4 31 ) Y0 )  )
( or ( <= ( + X0 68 ) X5 )  ( <= ( + X5 71 ) X0 )  ( <= ( + Y0 10 ) Y5 )  ( <= ( + Y5 11 ) Y0 )  )
( or ( <= ( + X0 68 ) X6 )  ( <= ( + X6 55 ) X0 )  ( <= ( + Y0 10 ) Y6 )  ( <= ( + Y6 83 ) Y0 )  )
( or ( <= ( + X0 68 ) X7 )  ( <= ( + X7 12 ) X0 )  ( <= ( + Y0 10 ) Y7 )  ( <= ( + Y7 50 ) Y0 )  )
( or ( <= ( + X0 68 ) X8 )  ( <= ( + X8 56 ) X0 )  ( <= ( + Y0 10 ) Y8 )  ( <= ( + Y8 97 ) Y0 )  )
( or ( <= ( + X0 68 ) X9 )  ( <= ( + X9 43 ) X0 )  ( <= ( + Y0 10 ) Y9 )  ( <= ( + Y9 27 ) Y0 )  )
( or ( <= ( + X0 68 ) X10 )  ( <= ( + X10 77 ) X0 )  ( <= ( + Y0 10 ) Y10 )  ( <= ( + Y10 75 ) Y0 )  )
( or ( <= ( + X0 68 ) X11 )  ( <= ( + X11 75 ) X0 )  ( <= ( + Y0 10 ) Y11 )  ( <= ( + Y11 42 ) Y0 )  )
( or ( <= ( + X1 66 ) X2 )  ( <= ( + X2 79 ) X1 )  ( <= ( + Y1 99 ) Y2 )  ( <= ( + Y2 40 ) Y1 )  )
( or ( <= ( + X1 66 ) X3 )  ( <= ( + X3 30 ) X1 )  ( <= ( + Y1 99 ) Y3 )  ( <= ( + Y3 58 ) Y1 )  )
( or ( <= ( + X1 66 ) X4 )  ( <= ( + X4 77 ) X1 )  ( <= ( + Y1 99 ) Y4 )  ( <= ( + Y4 31 ) Y1 )  )
( or ( <= ( + X1 66 ) X5 )  ( <= ( + X5 71 ) X1 )  ( <= ( + Y1 99 ) Y5 )  ( <= ( + Y5 11 ) Y1 )  )
( or ( <= ( + X1 66 ) X6 )  ( <= ( + X6 55 ) X1 )  ( <= ( + Y1 99 ) Y6 )  ( <= ( + Y6 83 ) Y1 )  )
( or ( <= ( + X1 66 ) X7 )  ( <= ( + X7 12 ) X1 )  ( <= ( + Y1 99 ) Y7 )  ( <= ( + Y7 50 ) Y1 )  )
( or ( <= ( + X1 66 ) X8 )  ( <= ( + X8 56 ) X1 )  ( <= ( + Y1 99 ) Y8 )  ( <= ( + Y8 97 ) Y1 )  )
( or ( <= ( + X1 66 ) X9 )  ( <= ( + X9 43 ) X1 )  ( <= ( + Y1 99 ) Y9 )  ( <= ( + Y9 27 ) Y1 )  )
( or ( <= ( + X1 66 ) X10 )  ( <= ( + X10 77 ) X1 )  ( <= ( + Y1 99 ) Y10 )  ( <= ( + Y10 75 ) Y1 )  )
( or ( <= ( + X1 66 ) X11 )  ( <= ( + X11 75 ) X1 )  ( <= ( + Y1 99 ) Y11 )  ( <= ( + Y11 42 ) Y1 )  )
( or ( <= ( + X2 79 ) X3 )  ( <= ( + X3 30 ) X2 )  ( <= ( + Y2 40 ) Y3 )  ( <= ( + Y3 58 ) Y2 )  )
( or ( <= ( + X2 79 ) X4 )  ( <= ( + X4 77 ) X2 )  ( <= ( + Y2 40 ) Y4 )  ( <= ( + Y4 31 ) Y2 )  )
( or ( <= ( + X2 79 ) X5 )  ( <= ( + X5 71 ) X2 )  ( <= ( + Y2 40 ) Y5 )  ( <= ( + Y5 11 ) Y2 )  )
( or ( <= ( + X2 79 ) X6 )  ( <= ( + X6 55 ) X2 )  ( <= ( + Y2 40 ) Y6 )  ( <= ( + Y6 83 ) Y2 )  )
( or ( <= ( + X2 79 ) X7 )  ( <= ( + X7 12 ) X2 )  ( <= ( + Y2 40 ) Y7 )  ( <= ( + Y7 50 ) Y2 )  )
( or ( <= ( + X2 79 ) X8 )  ( <= ( + X8 56 ) X2 )  ( <= ( + Y2 40 ) Y8 )  ( <= ( + Y8 97 ) Y2 )  )
( or ( <= ( + X2 79 ) X9 )  ( <= ( + X9 43 ) X2 )  ( <= ( + Y2 40 ) Y9 )  ( <= ( + Y9 27 ) Y2 )  )
( or ( <= ( + X2 79 ) X10 )  ( <= ( + X10 77 ) X2 )  ( <= ( + Y2 40 ) Y10 )  ( <= ( + Y10 75 ) Y2 )  )
( or ( <= ( + X2 79 ) X11 )  ( <= ( + X11 75 ) X2 )  ( <= ( + Y2 40 ) Y11 )  ( <= ( + Y11 42 ) Y2 )  )
( or ( <= ( + X3 30 ) X4 )  ( <= ( + X4 77 ) X3 )  ( <= ( + Y3 58 ) Y4 )  ( <= ( + Y4 31 ) Y3 )  )
( or ( <= ( + X3 30 ) X5 )  ( <= ( + X5 71 ) X3 )  ( <= ( + Y3 58 ) Y5 )  ( <= ( + Y5 11 ) Y3 )  )
( or ( <= ( + X3 30 ) X6 )  ( <= ( + X6 55 ) X3 )  ( <= ( + Y3 58 ) Y6 )  ( <= ( + Y6 83 ) Y3 )  )
( or ( <= ( + X3 30 ) X7 )  ( <= ( + X7 12 ) X3 )  ( <= ( + Y3 58 ) Y7 )  ( <= ( + Y7 50 ) Y3 )  )
( or ( <= ( + X3 30 ) X8 )  ( <= ( + X8 56 ) X3 )  ( <= ( + Y3 58 ) Y8 )  ( <= ( + Y8 97 ) Y3 )  )
( or ( <= ( + X3 30 ) X9 )  ( <= ( + X9 43 ) X3 )  ( <= ( + Y3 58 ) Y9 )  ( <= ( + Y9 27 ) Y3 )  )
( or ( <= ( + X3 30 ) X10 )  ( <= ( + X10 77 ) X3 )  ( <= ( + Y3 58 ) Y10 )  ( <= ( + Y10 75 ) Y3 )  )
( or ( <= ( + X3 30 ) X11 )  ( <= ( + X11 75 ) X3 )  ( <= ( + Y3 58 ) Y11 )  ( <= ( + Y11 42 ) Y3 )  )
( or ( <= ( + X4 77 ) X5 )  ( <= ( + X5 71 ) X4 )  ( <= ( + Y4 31 ) Y5 )  ( <= ( + Y5 11 ) Y4 )  )
( or ( <= ( + X4 77 ) X6 )  ( <= ( + X6 55 ) X4 )  ( <= ( + Y4 31 ) Y6 )  ( <= ( + Y6 83 ) Y4 )  )
( or ( <= ( + X4 77 ) X7 )  ( <= ( + X7 12 ) X4 )  ( <= ( + Y4 31 ) Y7 )  ( <= ( + Y7 50 ) Y4 )  )
( or ( <= ( + X4 77 ) X8 )  ( <= ( + X8 56 ) X4 )  ( <= ( + Y4 31 ) Y8 )  ( <= ( + Y8 97 ) Y4 )  )
( or ( <= ( + X4 77 ) X9 )  ( <= ( + X9 43 ) X4 )  ( <= ( + Y4 31 ) Y9 )  ( <= ( + Y9 27 ) Y4 )  )
( or ( <= ( + X4 77 ) X10 )  ( <= ( + X10 77 ) X4 )  ( <= ( + Y4 31 ) Y10 )  ( <= ( + Y10 75 ) Y4 )  )
( or ( <= ( + X4 77 ) X11 )  ( <= ( + X11 75 ) X4 )  ( <= ( + Y4 31 ) Y11 )  ( <= ( + Y11 42 ) Y4 )  )
( or ( <= ( + X5 71 ) X6 )  ( <= ( + X6 55 ) X5 )  ( <= ( + Y5 11 ) Y6 )  ( <= ( + Y6 83 ) Y5 )  )
( or ( <= ( + X5 71 ) X7 )  ( <= ( + X7 12 ) X5 )  ( <= ( + Y5 11 ) Y7 )  ( <= ( + Y7 50 ) Y5 )  )
( or ( <= ( + X5 71 ) X8 )  ( <= ( + X8 56 ) X5 )  ( <= ( + Y5 11 ) Y8 )  ( <= ( + Y8 97 ) Y5 )  )
( or ( <= ( + X5 71 ) X9 )  ( <= ( + X9 43 ) X5 )  ( <= ( + Y5 11 ) Y9 )  ( <= ( + Y9 27 ) Y5 )  )
( or ( <= ( + X5 71 ) X10 )  ( <= ( + X10 77 ) X5 )  ( <= ( + Y5 11 ) Y10 )  ( <= ( + Y10 75 ) Y5 )  )
( or ( <= ( + X5 71 ) X11 )  ( <= ( + X11 75 ) X5 )  ( <= ( + Y5 11 ) Y11 )  ( <= ( + Y11 42 ) Y5 )  )
( or ( <= ( + X6 55 ) X7 )  ( <= ( + X7 12 ) X6 )  ( <= ( + Y6 83 ) Y7 )  ( <= ( + Y7 50 ) Y6 )  )
( or ( <= ( + X6 55 ) X8 )  ( <= ( + X8 56 ) X6 )  ( <= ( + Y6 83 ) Y8 )  ( <= ( + Y8 97 ) Y6 )  )
( or ( <= ( + X6 55 ) X9 )  ( <= ( + X9 43 ) X6 )  ( <= ( + Y6 83 ) Y9 )  ( <= ( + Y9 27 ) Y6 )  )
( or ( <= ( + X6 55 ) X10 )  ( <= ( + X10 77 ) X6 )  ( <= ( + Y6 83 ) Y10 )  ( <= ( + Y10 75 ) Y6 )  )
( or ( <= ( + X6 55 ) X11 )  ( <= ( + X11 75 ) X6 )  ( <= ( + Y6 83 ) Y11 )  ( <= ( + Y11 42 ) Y6 )  )
( or ( <= ( + X7 12 ) X8 )  ( <= ( + X8 56 ) X7 )  ( <= ( + Y7 50 ) Y8 )  ( <= ( + Y8 97 ) Y7 )  )
( or ( <= ( + X7 12 ) X9 )  ( <= ( + X9 43 ) X7 )  ( <= ( + Y7 50 ) Y9 )  ( <= ( + Y9 27 ) Y7 )  )
( or ( <= ( + X7 12 ) X10 )  ( <= ( + X10 77 ) X7 )  ( <= ( + Y7 50 ) Y10 )  ( <= ( + Y10 75 ) Y7 )  )
( or ( <= ( + X7 12 ) X11 )  ( <= ( + X11 75 ) X7 )  ( <= ( + Y7 50 ) Y11 )  ( <= ( + Y11 42 ) Y7 )  )
( or ( <= ( + X8 56 ) X9 )  ( <= ( + X9 43 ) X8 )  ( <= ( + Y8 97 ) Y9 )  ( <= ( + Y9 27 ) Y8 )  )
( or ( <= ( + X8 56 ) X10 )  ( <= ( + X10 77 ) X8 )  ( <= ( + Y8 97 ) Y10 )  ( <= ( + Y10 75 ) Y8 )  )
( or ( <= ( + X8 56 ) X11 )  ( <= ( + X11 75 ) X8 )  ( <= ( + Y8 97 ) Y11 )  ( <= ( + Y11 42 ) Y8 )  )
( or ( <= ( + X9 43 ) X10 )  ( <= ( + X10 77 ) X9 )  ( <= ( + Y9 27 ) Y10 )  ( <= ( + Y10 75 ) Y9 )  )
( or ( <= ( + X9 43 ) X11 )  ( <= ( + X11 75 ) X9 )  ( <= ( + Y9 27 ) Y11 )  ( <= ( + Y11 42 ) Y9 )  )
( or ( <= ( + X10 77 ) X11 )  ( <= ( + X11 75 ) X10 )  ( <= ( + Y10 75 ) Y11 )  ( <= ( + Y11 42 ) Y10 )  )
( >= X0 0)
( <= ( + X0 68) Z)
( >= Y0 0)
( <= ( + Y0 10 ) 100)
( >= X1 0)
( <= ( + X1 66) Z)
( >= Y1 0)
( <= ( + Y1 99 ) 100)
( >= X2 0)
( <= ( + X2 79) Z)
( >= Y2 0)
( <= ( + Y2 40 ) 100)
( >= X3 0)
( <= ( + X3 30) Z)
( >= Y3 0)
( <= ( + Y3 58 ) 100)
( >= X4 0)
( <= ( + X4 77) Z)
( >= Y4 0)
( <= ( + Y4 31 ) 100)
( >= X5 0)
( <= ( + X5 71) Z)
( >= Y5 0)
( <= ( + Y5 11 ) 100)
( >= X6 0)
( <= ( + X6 55) Z)
( >= Y6 0)
( <= ( + Y6 83 ) 100)
( >= X7 0)
( <= ( + X7 12) Z)
( >= Y7 0)
( <= ( + Y7 50 ) 100)
( >= X8 0)
( <= ( + X8 56) Z)
( >= Y8 0)
( <= ( + Y8 97 ) 100)
( >= X9 0)
( <= ( + X9 43) Z)
( >= Y9 0)
( <= ( + Y9 27 ) 100)
( >= X10 0)
( <= ( + X10 77) Z)
( >= Y10 0)
( <= ( + Y10 75 ) 100)
( >= X11 0)
( <= ( + X11 75) Z)
( >= Y11 0)
( <= ( + Y11 42 ) 100)
) )
(minimize Z)
(check-sat)
